Day	0	Optimize a model with 2643 rows, 33494 columns and 307250 nonzeros
Variable types: 280 continuous, 33214 integer (32514 binary)
Coefficient statistics:
  Matrix range     [1e+00, 2e+02]
  Objective range  [1e+00, 2e+03]
  Bounds range     [1e+00, 1e+02]
  RHS range        [1e+00, 1e+03]
Found heuristic solution: objective 157508
Presolve removed 399 rows and 6374 columns
Presolve time: 1.45s
Presolved: 2244 rows, 27120 columns, 180309 nonzeros
Variable types: 0 continuous, 27120 integer (26395 binary)

Root relaxation: objective 7.592406e+04, 1004 iterations, 0.07 seconds

    Nodes    |    Current Node    |     Objective Bounds      |     Work
 Expl Unexpl |  Obj  Depth IntInf | Incumbent    BestBd   Gap | It/Node Time

     0     0 75924.0571    0   41 157508.000 75924.0571  51.8%     -    1s
H    0     0                    76177.000000 75924.0571  0.33%     -    1s
     0     0 76048.0000    0    2 76177.0000 76048.0000  0.17%     -    1s
     0     0 76048.0000    0    8 76177.0000 76048.0000  0.17%     -    2s
H    0     0                    76146.000000 76048.0000  0.13%     -    2s
H    0     0                    76143.000000 76048.0000  0.12%     -    2s
     0     0 76048.0000    0    6 76143.0000 76048.0000  0.12%     -    2s
H    0     0                    76088.000000 76048.0000  0.05%     -    2s
     0     1 76048.0000    0    6 76088.0000 76048.0000  0.05%     -    2s
H    3     2                    76058.000000 76048.0000  0.01%  77.7    2s
H    3     2                    76057.000000 76048.0000  0.01%  77.7    2s
*    4     2              14    76048.000000 76048.0000  0.00%  58.2    2s

Cutting planes:
  Gomory: 1

Explored 5 nodes (3475 simplex iterations) in 2.75 seconds
Thread count was 1 (of 16 available processors)

Solution count 9: 76048 76057 76058 ... 157508
Pool objective bound 76048

Optimal solution found (tolerance 1.00e-04)
Best objective 7.604800000000e+04, best bound 7.604800000000e+04, gap 0.0000%
	MIPObjVal:	76048.0	runtime:	2.751768112182617	patientsNumber:	123	room Occupancy:	0.9333333333333333	OR Occupancy:	0.6799259944495837
roomCost:	2860.0	genderPolicy:	0.0	transferCost:	300.0	delayCost:	1090.0	overCrowdRisk:	8.0	overtime:	59.99999999999147	idleRoom:	4680.0	idleOR:	67050.0	eRoomIdle:	0.0	eORIdle:	0.0	roomU:	0.0	orU:	0.0
Day	1	Optimize a model with 2553 rows, 30190 columns and 247019 nonzeros
Variable types: 270 continuous, 29920 integer (29245 binary)
Coefficient statistics:
  Matrix range     [1e+00, 2e+02]
  Objective range  [1e+00, 2e+03]
  Bounds range     [1e+00, 1e+02]
  RHS range        [1e+00, 1e+03]
Found heuristic solution: objective 140232
Presolve removed 432 rows and 5259 columns
Presolve time: 0.65s
Presolved: 2121 rows, 24931 columns, 151811 nonzeros
Variable types: 0 continuous, 24931 integer (24258 binary)

Root relaxation: objective 6.876420e+04, 1093 iterations, 0.06 seconds

    Nodes    |    Current Node    |     Objective Bounds      |     Work
 Expl Unexpl |  Obj  Depth IntInf | Incumbent    BestBd   Gap | It/Node Time

     0     0 68764.2000    0   58 140232.000 68764.2000  51.0%     -    0s
H    0     0                    69064.000000 68764.2000  0.43%     -    0s
H    0     0                    68851.000000 68764.2000  0.13%     -    0s
     0     0 68843.5000    0   32 68851.0000 68843.5000  0.01%     -    0s
     0     0 68843.5000    0   35 68851.0000 68843.5000  0.01%     -    1s
H    0     0                    68850.000000 68843.5000  0.01%     -    1s

Explored 0 nodes (1983 simplex iterations) in 1.25 seconds
Thread count was 1 (of 16 available processors)

Solution count 4: 68850 68851 69064 140232 
Pool objective bound 68844

Optimal solution found (tolerance 1.00e-04)
Best objective 6.885000000000e+04, best bound 6.884400000000e+04, gap 0.0087%
	MIPObjVal:	68850.0	runtime:	1.2525618076324463	patientsNumber:	123	room Occupancy:	0.6666666666666666	OR Occupancy:	0.0
roomCost:	2930.0	genderPolicy:	0.0	transferCost:	0.0	delayCost:	1035.0	overCrowdRisk:	15.0	overtime:	60.0	idleRoom:	3960.0	idleOR:	60850.0	eRoomIdle:	0.0	eORIdle:	0.0	roomU:	0.0	orU:	0.0
Day	2	Optimize a model with 2477 rows, 34706 columns and 285043 nonzeros
Variable types: 260 continuous, 34446 integer (33796 binary)
Coefficient statistics:
  Matrix range     [1e+00, 2e+02]
  Objective range  [1e+00, 2e+03]
  Bounds range     [1e+00, 1e+02]
  RHS range        [1e+00, 1e+03]
Found heuristic solution: objective 141546
Presolve removed 383 rows and 5905 columns
Presolve time: 0.75s
Presolved: 2094 rows, 28801 columns, 175900 nonzeros
Variable types: 0 continuous, 28801 integer (28127 binary)

Root relaxation: objective 6.184763e+04, 1389 iterations, 0.10 seconds

    Nodes    |    Current Node    |     Objective Bounds      |     Work
 Expl Unexpl |  Obj  Depth IntInf | Incumbent    BestBd   Gap | It/Node Time

     0     0 61847.6333    0  139 141546.000 61847.6333  56.3%     -    0s
H    0     0                    62992.000000 61847.6333  1.82%     -    1s
H    0     0                    62682.000000 61847.6333  1.33%     -    1s
H    0     0                    61942.000000 61847.6333  0.15%     -    1s
     0     0 61936.5000    0   70 61942.0000 61936.5000  0.01%     -    1s

Cutting planes:
  Cover: 5
  Implied bound: 1
  Clique: 1
  GUB cover: 2
  Zero half: 8

Explored 0 nodes (1593 simplex iterations) in 1.32 seconds
Thread count was 1 (of 16 available processors)

Solution count 4: 61942 62682 62992 141546 
Pool objective bound 61937

Optimal solution found (tolerance 1.00e-04)
Best objective 6.194200000000e+04, best bound 6.193700000000e+04, gap 0.0081%
	MIPObjVal:	61942.0	runtime:	1.316744089126587	patientsNumber:	137	room Occupancy:	0.6222222222222222	OR Occupancy:	0.0
roomCost:	3550.0	genderPolicy:	0.0	transferCost:	100.0	delayCost:	1090.0	overCrowdRisk:	22.0	overtime:	60.0	idleRoom:	2620.0	idleOR:	54500.0	eRoomIdle:	0.0	eORIdle:	0.0	roomU:	0.0	orU:	0.0
Day	3	Optimize a model with 2395 rows, 38517 columns and 315865 nonzeros
Variable types: 250 continuous, 38267 integer (37642 binary)
Coefficient statistics:
  Matrix range     [1e+00, 2e+02]
  Objective range  [1e+00, 2e+03]
  Bounds range     [1e+00, 1e+02]
  RHS range        [1e+00, 1e+03]
Found heuristic solution: objective 142650
Presolve removed 378 rows and 6479 columns
Presolve time: 0.89s
Presolved: 2017 rows, 32038 columns, 195479 nonzeros
Variable types: 0 continuous, 32038 integer (31389 binary)

Root relaxation: objective 5.896281e+04, 2015 iterations, 0.20 seconds

    Nodes    |    Current Node    |     Objective Bounds      |     Work
 Expl Unexpl |  Obj  Depth IntInf | Incumbent    BestBd   Gap | It/Node Time

     0     0 58962.8058    0  118 142650.000 58962.8058  58.7%     -    1s
H    0     0                    59432.000000 58962.8058  0.79%     -    1s
H    0     0                    59379.000000 58962.8058  0.70%     -    1s
H    0     0                    59102.000000 58962.8058  0.24%     -    1s
     0     0 59099.0000    0   70 59102.0000 59099.0000  0.01%     -    1s

Cutting planes:
  Cover: 7
  Implied bound: 1
  Clique: 2
  MIR: 3
  GUB cover: 1
  Zero half: 2

Explored 0 nodes (2319 simplex iterations) in 1.65 seconds
Thread count was 1 (of 16 available processors)

Solution count 4: 59102 59379 59432 142650 
Pool objective bound 59099

Optimal solution found (tolerance 1.00e-04)
Best objective 5.910200000000e+04, best bound 5.909900000000e+04, gap 0.0051%
	MIPObjVal:	59102.0	runtime:	1.6559369564056396	patientsNumber:	145	room Occupancy:	0.9333333333333333	OR Occupancy:	0.6521739130434783
roomCost:	4250.0	genderPolicy:	0.0	transferCost:	0.0	delayCost:	2025.0	overCrowdRisk:	27.0	overtime:	180.0	idleRoom:	1620.0	idleOR:	51000.0	eRoomIdle:	0.0	eORIdle:	0.0	roomU:	0.0	orU:	0.0
Day	4	Optimize a model with 2312 rows, 36961 columns and 302372 nonzeros
Variable types: 240 continuous, 36721 integer (36121 binary)
Coefficient statistics:
  Matrix range     [1e+00, 2e+02]
  Objective range  [1e+00, 2e+03]
  Bounds range     [1e+00, 1e+02]
  RHS range        [1e+00, 1e+03]
Found heuristic solution: objective 129661
Presolve removed 362 rows and 6142 columns
Presolve time: 0.88s
Presolved: 1950 rows, 30819 columns, 189025 nonzeros
Variable types: 0 continuous, 30819 integer (30197 binary)

Root relaxation: objective 5.086570e+04, 2152 iterations, 0.17 seconds

    Nodes    |    Current Node    |     Objective Bounds      |     Work
 Expl Unexpl |  Obj  Depth IntInf | Incumbent    BestBd   Gap | It/Node Time

     0     0 50865.7000    0  144 129661.000 50865.7000  60.8%     -    1s
H    0     0                    51408.000000 50865.7000  1.05%     -    1s
H    0     0                    51221.000000 50865.7000  0.69%     -    1s
H    0     0                    51030.000000 50865.7000  0.32%     -    1s
     0     0 50996.6563    0  156 51030.0000 50996.6562  0.07%     -    1s
     0     0 50996.6562    0  112 51030.0000 50996.6562  0.07%     -    2s
     0     0 51013.5062    0  185 51030.0000 51013.5062  0.03%     -    2s
     0     1 51015.0000    0  180 51030.0000 51015.0000  0.03%     -    3s

Cutting planes:
  Gomory: 1
  Clique: 7
  Zero half: 13

Explored 4 nodes (5371 simplex iterations) in 3.55 seconds
Thread count was 1 (of 16 available processors)

Solution count 4: 51030 51221 51408 129661 
Pool objective bound 51028

Optimal solution found (tolerance 1.00e-04)
Best objective 5.103000000000e+04, best bound 5.102800000000e+04, gap 0.0039%
	MIPObjVal:	51030.0	runtime:	3.5548081398010254	patientsNumber:	152	room Occupancy:	0.9777777777777777	OR Occupancy:	0.2543940795559667
roomCost:	5430.0	genderPolicy:	0.0	transferCost:	0.0	delayCost:	3510.0	overCrowdRisk:	30.0	overtime:	150.0	idleRoom:	560.0	idleOR:	41350.0	eRoomIdle:	0.0	eORIdle:	0.0	roomU:	0.0	orU:	0.0
Day	5	Optimize a model with 2237 rows, 37910 columns and 306450 nonzeros
Variable types: 230 continuous, 37680 integer (37105 binary)
Coefficient statistics:
  Matrix range     [1e+00, 2e+02]
  Objective range  [1e+00, 2e+03]
  Bounds range     [1e+00, 1e+02]
  RHS range        [1e+00, 1e+03]
Found heuristic solution: objective 112412
Presolve removed 354 rows and 6415 columns
Presolve time: 0.91s
Presolved: 1883 rows, 31495 columns, 192527 nonzeros
Variable types: 0 continuous, 31495 integer (30899 binary)

Root relaxation: objective 3.756291e+04, 3311 iterations, 0.41 seconds

    Nodes    |    Current Node    |     Objective Bounds      |     Work
 Expl Unexpl |  Obj  Depth IntInf | Incumbent    BestBd   Gap | It/Node Time

     0     0 37562.9111    0  250 112412.000 37562.9111  66.6%     -    1s
H    0     0                    40214.000000 37562.9111  6.59%     -    1s
H    0     0                    37813.000000 37562.9111  0.66%     -    3s
     0     0 37767.4426    0  285 37813.0000 37767.4426  0.12%     -    3s
     0     0 37767.4426    0  237 37813.0000 37767.4426  0.12%     -    4s
     0     0 37775.4381    0  245 37813.0000 37775.4381  0.10%     -    5s
     0     2 37778.6148    0  245 37813.0000 37778.6148  0.09%     -    7s
    24    19 37799.7608    0  213 37813.0000 37799.7608  0.04%  96.1   10s

Cutting planes:
  Gomory: 6
  Cover: 12
  Clique: 11
  MIR: 1
  Flow cover: 1
  Inf proof: 2
  Zero half: 29

Explored 377 nodes (28603 simplex iterations) in 13.92 seconds
Thread count was 1 (of 16 available processors)

Solution count 3: 37813 40214 112412 
Pool objective bound 37810

Optimal solution found (tolerance 1.00e-04)
Best objective 3.781300000000e+04, best bound 3.781000000000e+04, gap 0.0079%
	MIPObjVal:	37813.0	runtime:	13.919319152832031	patientsNumber:	167	room Occupancy:	1.0	OR Occupancy:	0.7678075855689177
roomCost:	5940.0	genderPolicy:	0.0	transferCost:	100.0	delayCost:	4875.0	overCrowdRisk:	38.0	overtime:	330.0	idleRoom:	80.0	idleOR:	26450.0	eRoomIdle:	0.0	eORIdle:	0.0	roomU:	0.0	orU:	0.0
Day	6	Optimize a model with 2144 rows, 38432 columns and 314786 nonzeros
Variable types: 220 continuous, 38212 integer (37662 binary)
Coefficient statistics:
  Matrix range     [1e+00, 2e+02]
  Objective range  [1e+00, 2e+03]
  Bounds range     [1e+00, 1e+02]
  RHS range        [1e+00, 1e+03]
Found heuristic solution: objective 107603
Presolve removed 341 rows and 6454 columns
Presolve time: 1.00s
Presolved: 1803 rows, 31978 columns, 197619 nonzeros
Variable types: 0 continuous, 31978 integer (31404 binary)

Root relaxation: objective 3.265400e+04, 3374 iterations, 0.36 seconds

    Nodes    |    Current Node    |     Objective Bounds      |     Work
 Expl Unexpl |  Obj  Depth IntInf | Incumbent    BestBd   Gap | It/Node Time

     0     0 32653.9962    0  211 107603.000 32653.9962  69.7%     -    1s
H    0     0                    37005.000000 32653.9962  11.8%     -    1s
H    0     0                    34060.000000 32653.9962  4.13%     -    1s
H    0     0                    33111.000000 32653.9962  1.38%     -    2s
     0     0 33095.5074    0  150 33111.0000 33095.5074  0.05%     -    2s
     0     0 33095.5074    0  159 33111.0000 33095.5074  0.05%     -    3s
     0     0 33096.0000    0  120 33111.0000 33096.0000  0.05%     -    4s
     0     1 33096.0000    0  125 33111.0000 33096.0000  0.05%     -    5s

Cutting planes:
  Gomory: 2
  Clique: 1
  Zero half: 1

Explored 12 nodes (9412 simplex iterations) in 5.77 seconds
Thread count was 1 (of 16 available processors)

Solution count 6: 33111 33111 33111 ... 107603
Pool objective bound 33111

Optimal solution found (tolerance 1.00e-04)
Best objective 3.311100000000e+04, best bound 3.311100000000e+04, gap 0.0000%
	MIPObjVal:	33111.0	runtime:	5.769160985946655	patientsNumber:	164	room Occupancy:	1.0	OR Occupancy:	0.6891766882516188
roomCost:	4560.0	genderPolicy:	0.0	transferCost:	0.0	delayCost:	5665.0	overCrowdRisk:	36.0	overtime:	330.0	idleRoom:	20.0	idleOR:	22500.0	eRoomIdle:	0.0	eORIdle:	0.0	roomU:	0.0	orU:	0.0
Day	7	Optimize a model with 2060 rows, 38016 columns and 311765 nonzeros
Variable types: 210 continuous, 37806 integer (37281 binary)
Coefficient statistics:
  Matrix range     [1e+00, 2e+02]
  Objective range  [1e+00, 2e+03]
  Bounds range     [1e+00, 1e+02]
  RHS range        [1e+00, 1e+03]
Found heuristic solution: objective 85782
Presolve removed 331 rows and 6638 columns
Presolve time: 0.83s
Presolved: 1729 rows, 31378 columns, 195876 nonzeros
Variable types: 0 continuous, 31378 integer (30831 binary)

Root relaxation: objective 2.309579e+04, 3196 iterations, 0.29 seconds

    Nodes    |    Current Node    |     Objective Bounds      |     Work
 Expl Unexpl |  Obj  Depth IntInf | Incumbent    BestBd   Gap | It/Node Time

     0     0 23095.7854    0  239 85782.0000 23095.7854  73.1%     -    1s
H    0     0                    28235.000000 23095.7854  18.2%     -    1s
H    0     0                    23896.000000 23095.7854  3.35%     -    2s
     0     0 23866.0000    0  179 23896.0000 23866.0000  0.13%     -    2s
     0     0 23868.1000    0  183 23896.0000 23868.1000  0.12%     -    2s
     0     0 23879.3167    0  137 23896.0000 23879.3167  0.07%     -    3s
     0     0 23879.3167    0  155 23896.0000 23879.3167  0.07%     -    3s
     0     0 23889.3500    0  152 23896.0000 23889.3500  0.03%     -    3s
     0     0 23891.5000    0  131 23896.0000 23891.5000  0.02%     -    3s
     0     0 23893.6667    0   35 23896.0000 23893.6667  0.01%     -    3s

Cutting planes:
  Gomory: 13
  Clique: 8
  MIR: 3
  Zero half: 18

Explored 0 nodes (6316 simplex iterations) in 3.44 seconds
Thread count was 1 (of 16 available processors)

Solution count 4: 23896 23896 28235 85782 
Pool objective bound 23894

Optimal solution found (tolerance 1.00e-04)
Best objective 2.389600000000e+04, best bound 2.389400000000e+04, gap 0.0084%
	MIPObjVal:	23896.0	runtime:	3.4453070163726807	patientsNumber:	170	room Occupancy:	1.0	OR Occupancy:	0.5087881591119334
roomCost:	4120.0	genderPolicy:	0.0	transferCost:	0.0	delayCost:	6340.0	overCrowdRisk:	41.0	overtime:	345.0	idleRoom:	0.0	idleOR:	13050.0	eRoomIdle:	0.0	eORIdle:	0.0	roomU:	0.0	orU:	0.0
Day	8	Optimize a model with 1977 rows, 37253 columns and 289930 nonzeros
Variable types: 200 continuous, 37053 integer (36553 binary)
Coefficient statistics:
  Matrix range     [1e+00, 2e+02]
  Objective range  [1e+00, 2e+03]
  Bounds range     [1e+00, 1e+02]
  RHS range        [1e+00, 1e+03]
Found heuristic solution: objective 72085
Presolve removed 307 rows and 6460 columns
Presolve time: 0.81s
Presolved: 1670 rows, 30793 columns, 184444 nonzeros
Variable types: 0 continuous, 30793 integer (30273 binary)

Root relaxation: objective 1.573412e+04, 3430 iterations, 0.37 seconds

    Nodes    |    Current Node    |     Objective Bounds      |     Work
 Expl Unexpl |  Obj  Depth IntInf | Incumbent    BestBd   Gap | It/Node Time

     0     0 15734.1204    0  216 72085.0000 15734.1204  78.2%     -    1s
H    0     0                    19231.000000 15734.1204  18.2%     -    1s
H    0     0                    16065.000000 15734.1204  2.06%     -    1s
     0     0 16032.4292    0  197 16065.0000 16032.4292  0.20%     -    2s
     0     0 16032.7111    0  178 16065.0000 16032.7111  0.20%     -    2s
     0     0 16035.0074    0  177 16065.0000 16035.0074  0.19%     -    2s
     0     0 16035.0074    0  112 16065.0000 16035.0074  0.19%     -    2s
H    0     0                    16064.000000 16035.0074  0.18%     -    2s
     0     0     cutoff    0      16064.0000 16064.0000  0.00%     -    2s

Cutting planes:
  Gomory: 2
  Clique: 7
  Zero half: 6

Explored 0 nodes (6972 simplex iterations) in 2.82 seconds
Thread count was 1 (of 16 available processors)

Solution count 4: 16064 16065 19231 72085 
Pool objective bound 16064

Optimal solution found (tolerance 1.00e-04)
Best objective 1.606400000000e+04, best bound 1.606400000000e+04, gap 0.0000%
	MIPObjVal:	16064.0	runtime:	2.8195641040802	patientsNumber:	177	room Occupancy:	1.0	OR Occupancy:	0.0
roomCost:	4140.0	genderPolicy:	0.0	transferCost:	0.0	delayCost:	5840.0	overCrowdRisk:	39.0	overtime:	645.0	idleRoom:	0.0	idleOR:	5400.0	eRoomIdle:	0.0	eORIdle:	0.0	roomU:	0.0	orU:	0.0
Day	9	Optimize a model with 1914 rows, 42270 columns and 314713 nonzeros
Variable types: 190 continuous, 42080 integer (41605 binary)
Coefficient statistics:
  Matrix range     [1e+00, 2e+02]
  Objective range  [1e+00, 2e+03]
  Bounds range     [1e+00, 1e+02]
  RHS range        [1e+00, 1e+03]
Found heuristic solution: objective 72289
Presolve removed 286 rows and 7892 columns
Presolve time: 0.85s
Presolved: 1628 rows, 34378 columns, 197798 nonzeros
Variable types: 0 continuous, 34378 integer (33880 binary)

Root relaxation: objective 1.675514e+04, 4707 iterations, 0.57 seconds

    Nodes    |    Current Node    |     Objective Bounds      |     Work
 Expl Unexpl |  Obj  Depth IntInf | Incumbent    BestBd   Gap | It/Node Time

     0     0 16755.1408    0  222 72289.0000 16755.1408  76.8%     -    1s
H    0     0                    19168.000000 16755.1408  12.6%     -    1s
H    0     0                    17167.000000 16755.1408  2.40%     -    2s
     0     0 17120.1286    0  239 17167.0000 17120.1286  0.27%     -    2s
     0     0 17121.2473    0  241 17167.0000 17121.2473  0.27%     -    2s
     0     0 17157.8981    0  110 17167.0000 17157.8981  0.05%     -    2s
     0     0 17157.8981    0  116 17167.0000 17157.8981  0.05%     -    3s
     0     0 17162.5278    0  143 17167.0000 17162.5278  0.03%     -    3s
     0     0 17162.5278    0  133 17167.0000 17162.5278  0.03%     -    3s
     0     0 17166.0000    0   10 17167.0000 17166.0000  0.01%     -    3s

Cutting planes:
  Gomory: 8
  Cover: 2
  Implied bound: 1
  Clique: 9
  MIR: 2
  Zero half: 14

Explored 0 nodes (10412 simplex iterations) in 3.84 seconds
Thread count was 1 (of 16 available processors)

Solution count 3: 17167 19168 72289 
Pool objective bound 17166

Optimal solution found (tolerance 1.00e-04)
Best objective 1.716700000000e+04, best bound 1.716600000000e+04, gap 0.0058%
	MIPObjVal:	17167.0	runtime:	3.836803913116455	patientsNumber:	204	room Occupancy:	0.9777777777777777	OR Occupancy:	0.0
roomCost:	4410.0	genderPolicy:	0.0	transferCost:	0.0	delayCost:	7130.0	overCrowdRisk:	47.0	overtime:	660.0	idleRoom:	20.0	idleOR:	4900.0	eRoomIdle:	0.0	eORIdle:	0.0	roomU:	0.0	orU:	0.0
Day	10	Optimize a model with 1826 rows, 43229 columns and 312015 nonzeros
Variable types: 180 continuous, 43049 integer (42599 binary)
Coefficient statistics:
  Matrix range     [1e+00, 2e+02]
  Objective range  [1e+00, 2e+03]
  Bounds range     [1e+00, 1e+02]
  RHS range        [1e+00, 1e+03]
Found heuristic solution: objective 71006
Presolve removed 275 rows and 8249 columns
Presolve time: 0.89s
Presolved: 1551 rows, 34980 columns, 194394 nonzeros
Variable types: 0 continuous, 34980 integer (34507 binary)

Root relaxation: objective 1.673310e+04, 5667 iterations, 0.65 seconds

    Nodes    |    Current Node    |     Objective Bounds      |     Work
 Expl Unexpl |  Obj  Depth IntInf | Incumbent    BestBd   Gap | It/Node Time

     0     0 16733.0982    0  206 71006.0000 16733.0982  76.4%     -    1s
H    0     0                    19387.000000 16733.0982  13.7%     -    2s
H    0     0                    17287.000000 16733.0982  3.20%     -    2s
     0     0 17184.6532    0  230 17287.0000 17184.6532  0.59%     -    2s
     0     0 17188.2821    0  218 17287.0000 17188.2821  0.57%     -    3s
     0     0 17232.3875    0  138 17287.0000 17232.3875  0.32%     -    3s
     0     0 17232.3875    0  175 17287.0000 17232.3875  0.32%     -    4s
     0     0 17232.3875    0  225 17287.0000 17232.3875  0.32%     -    4s
     0     0 17232.3875    0  237 17287.0000 17232.3875  0.32%     -    4s
     0     0 17232.3875    0  154 17287.0000 17232.3875  0.32%     -    4s
     0     2 17233.5417    0  145 17287.0000 17233.5417  0.31%     -    6s
H    1     2                    17247.000000 17233.5417  0.08%   139    6s

Cutting planes:
  Gomory: 15
  Implied bound: 1
  Clique: 17
  MIR: 1
  Flow cover: 1
  Zero half: 19

Explored 7 nodes (18290 simplex iterations) in 7.59 seconds
Thread count was 1 (of 16 available processors)

Solution count 5: 17247 17247 17287 ... 71006
Pool objective bound 17246

Optimal solution found (tolerance 1.00e-04)
Best objective 1.724700000000e+04, best bound 1.724600000000e+04, gap 0.0058%
	MIPObjVal:	17247.0	runtime:	7.593241930007935	patientsNumber:	206	room Occupancy:	1.0	OR Occupancy:	0.6567992599444958
roomCost:	4200.0	genderPolicy:	0.0	transferCost:	0.0	delayCost:	7440.0	overCrowdRisk:	47.0	overtime:	660.0	idleRoom:	0.0	idleOR:	4900.0	eRoomIdle:	0.0	eORIdle:	0.0	roomU:	0.0	orU:	0.0
Day	11	Optimize a model with 1733 rows, 42470 columns and 297082 nonzeros
Variable types: 170 continuous, 42300 integer (41875 binary)
Coefficient statistics:
  Matrix range     [1e+00, 2e+02]
  Objective range  [1e+00, 2e+03]
  Bounds range     [1e+00, 1e+02]
  RHS range        [1e+00, 1e+03]
Found heuristic solution: objective 53748
Presolve removed 269 rows and 7930 columns
Presolve time: 0.83s
Presolved: 1464 rows, 34540 columns, 186773 nonzeros
Variable types: 0 continuous, 34540 integer (34097 binary)

Root relaxation: objective 1.211284e+04, 5387 iterations, 0.69 seconds

    Nodes    |    Current Node    |     Objective Bounds      |     Work
 Expl Unexpl |  Obj  Depth IntInf | Incumbent    BestBd   Gap | It/Node Time

     0     0 12112.8412    0  205 53748.0000 12112.8412  77.5%     -    1s
H    0     0                    14566.000000 12112.8412  16.8%     -    1s
H    0     0                    13218.000000 12112.8412  8.36%     -    2s
H    0     0                    12497.000000 12112.8412  3.07%     -    5s
     0     0 12457.2150    0  232 12497.0000 12457.2150  0.32%     -    5s
     0     0 12472.3500    0  166 12497.0000 12472.3500  0.20%     -    5s
     0     0 12472.3500    0  151 12497.0000 12472.3500  0.20%     -    6s
     0     0 12472.3500    0  219 12497.0000 12472.3500  0.20%     -    7s
     0     0 12472.5481    0  219 12497.0000 12472.5481  0.20%     -    7s
     0     0 12483.5282    0  154 12497.0000 12483.5282  0.11%     -    7s
     0     1 12483.8533    0  151 12497.0000 12483.8533  0.11%     -    8s

Explored 11 nodes (18827 simplex iterations) in 9.74 seconds
Thread count was 1 (of 16 available processors)

Solution count 5: 12497 12497 13218 ... 53748
Pool objective bound 12497

Optimal solution found (tolerance 1.00e-04)
Best objective 1.249700000000e+04, best bound 1.249700000000e+04, gap 0.0000%
	MIPObjVal:	12497.0	runtime:	9.741025924682617	patientsNumber:	203	room Occupancy:	1.0	OR Occupancy:	0.9620721554116559
roomCost:	3810.0	genderPolicy:	0.0	transferCost:	0.0	delayCost:	6935.0	overCrowdRisk:	42.0	overtime:	510.0	idleRoom:	0.0	idleOR:	1200.0	eRoomIdle:	0.0	eORIdle:	0.0	roomU:	0.0	orU:	0.0
Day	12	Optimize a model with 1647 rows, 42706 columns and 287225 nonzeros
Variable types: 160 continuous, 42546 integer (42146 binary)
Coefficient statistics:
  Matrix range     [1e+00, 2e+02]
  Objective range  [1e+00, 2e+03]
  Bounds range     [1e+00, 1e+02]
  RHS range        [1e+00, 1e+03]
Found heuristic solution: objective 45878
Presolve removed 264 rows and 7968 columns
Presolve time: 0.90s
Presolved: 1383 rows, 34738 columns, 183757 nonzeros
Variable types: 0 continuous, 34738 integer (34324 binary)

Root relaxation: objective 9.919897e+03, 4949 iterations, 0.57 seconds

    Nodes    |    Current Node    |     Objective Bounds      |     Work
 Expl Unexpl |  Obj  Depth IntInf | Incumbent    BestBd   Gap | It/Node Time

     0     0 9919.89678    0  195 45878.0000 9919.89678  78.4%     -    1s
H    0     0                    11213.000000 9919.89678  11.5%     -    1s
H    0     0                    10644.000000 9919.89678  6.80%     -    2s
H    0     0                    10467.000000 9919.89678  5.23%     -    5s
     0     0 10388.7298    0  250 10467.0000 10388.7298  0.75%     -    5s
     0     0 10392.6992    0  232 10467.0000 10392.6992  0.71%     -    5s
     0     0 10442.1967    0  189 10467.0000 10442.1967  0.24%     -    6s
     0     0 10442.1967    0  168 10467.0000 10442.1967  0.24%     -    7s
H    0     0                    10458.000000 10442.1967  0.15%     -    7s
     0     0 10442.1967    0  256 10458.0000 10442.1967  0.15%     -    8s
     0     0 10442.1967    0  256 10458.0000 10442.1967  0.15%     -    8s
     0     0 10443.6055    0  194 10458.0000 10443.6055  0.14%     -    8s
     0     1 10443.6305    0  194 10458.0000 10443.6305  0.14%     -    9s
     2     2 10443.6305    0  189 10458.0000 10443.6305  0.14%   270   10s

Cutting planes:
  Gomory: 6
  Clique: 17
  Flow cover: 1
  Zero half: 14

Explored 8 nodes (16080 simplex iterations) in 10.46 seconds
Thread count was 1 (of 16 available processors)

Solution count 5: 10458 10467 10644 ... 45878
Pool objective bound 10458

Optimal solution found (tolerance 1.00e-04)
Best objective 1.045800000000e+04, best bound 1.045800000000e+04, gap 0.0000%
	MIPObjVal:	10458.0	runtime:	10.4567289352417	patientsNumber:	207	room Occupancy:	1.0	OR Occupancy:	0.9574468085106383
roomCost:	3100.0	genderPolicy:	0.0	transferCost:	0.0	delayCost:	5920.0	overCrowdRisk:	38.0	overtime:	600.0	idleRoom:	0.0	idleOR:	800.0	eRoomIdle:	0.0	eORIdle:	0.0	roomU:	0.0	orU:	0.0
Day	13	Optimize a model with 1560 rows, 42037 columns and 270831 nonzeros
Variable types: 150 continuous, 41887 integer (41512 binary)
Coefficient statistics:
  Matrix range     [1e+00, 2e+02]
  Objective range  [1e+00, 2e+03]
  Bounds range     [1e+00, 1e+02]
  RHS range        [1e+00, 1e+03]
Found heuristic solution: objective 36274
Presolve removed 251 rows and 7769 columns
Presolve time: 0.91s
Presolved: 1309 rows, 34268 columns, 173974 nonzeros
Variable types: 0 continuous, 34268 integer (33882 binary)

Root relaxation: objective 6.870683e+03, 4860 iterations, 0.55 seconds

    Nodes    |    Current Node    |     Objective Bounds      |     Work
 Expl Unexpl |  Obj  Depth IntInf | Incumbent    BestBd   Gap | It/Node Time

     0     0 6870.68317    0  174 36274.0000 6870.68317  81.1%     -    1s
H    0     0                    7542.0000000 6870.68317  8.90%     -    1s
H    0     0                    7471.0000000 6870.68317  8.04%     -    2s
H    0     0                    7373.0000000 6870.68317  6.81%     -    4s
     0     0 7296.93938    0  167 7373.00000 7296.93938  1.03%     -    4s
     0     0 7297.87484    0  176 7373.00000 7297.87484  1.02%     -    4s
     0     0 7360.07432    0  180 7373.00000 7360.07432  0.18%     -    5s
     0     0 7360.07432    0  163 7373.00000 7360.07432  0.18%     -    6s
     0     0 7360.07432    0  201 7373.00000 7360.07432  0.18%     -    6s
     0     0 7360.07432    0  202 7373.00000 7360.07432  0.18%     -    6s
     0     0 7367.13291    0  164 7373.00000 7367.13291  0.08%     -    7s
     0     1 7367.13291    0  155 7373.00000 7367.13291  0.08%     -    8s

Cutting planes:
  Cover: 5
  Implied bound: 1
  Clique: 14
  MIR: 4
  Zero half: 3

Explored 1 nodes (13400 simplex iterations) in 8.86 seconds
Thread count was 1 (of 16 available processors)

Solution count 4: 7373 7471 7542 36274 
Pool objective bound 7373

Optimal solution found (tolerance 1.00e-04)
Best objective 7.373000000000e+03, best bound 7.373000000000e+03, gap 0.0000%
	MIPObjVal:	7373.0	runtime:	8.86020302772522	patientsNumber:	210	room Occupancy:	1.0	OR Occupancy:	0.9666975023126735
roomCost:	2750.0	genderPolicy:	0.0	transferCost:	0.0	delayCost:	3740.0	overCrowdRisk:	38.0	overtime:	495.0	idleRoom:	0.0	idleOR:	350.0	eRoomIdle:	0.0	eORIdle:	0.0	roomU:	0.0	orU:	0.0
RoomCost:	9880	
GenderPolicy:	0	
TransferCost:	500	
DelayCost:	5615	
OvercrowdRisk:	89	
IdleRoom:	800	
IdleOR:	34400	
OROORTO:	1260	
OverRC:	0	
ORUORTU:	0	
Violations:	0	Total ObjVal:	52544	Runtime:	0.0	Room occupancy ratio:	0.9514286	OR occupancy ratio:	0.7101852
The dynamic result in	./Results/FS2HighO/or_pas_dept2_short02_sol0.xml	violations:	0	total ObjVal:	52544	runtime:	84.231	average_patient_number:	170
